(set-info :smt-lib-version 2.6)
(set-logic UF)
(set-info :source |Benchmarks from the paper: "Extending Sledgehammer with SMT Solvers" by Jasmin Blanchette, Sascha Bohme, and Lawrence C. Paulson, CADE 2011.  Translated to SMT2 by Andrew Reynolds and Morgan Deters.|)
(set-info :category "industrial")
(set-info :status unknown)
(declare-sort S1 0)
(declare-sort S2 0)
(declare-sort S3 0)
(declare-sort S4 0)
(declare-sort S5 0)
(declare-sort S6 0)
(declare-sort S7 0)
(declare-sort S8 0)
(declare-sort S9 0)
(declare-sort S10 0)
(declare-sort S11 0)
(declare-sort S12 0)
(declare-sort S13 0)
(declare-sort S14 0)
(declare-sort S15 0)
(declare-sort S16 0)
(declare-sort S17 0)
(declare-sort S18 0)
(declare-sort S19 0)
(declare-sort S20 0)
(declare-sort S21 0)
(declare-sort S22 0)
(declare-sort S23 0)
(declare-sort S24 0)
(declare-sort S25 0)
(declare-sort S26 0)
(declare-sort S27 0)
(declare-sort S28 0)
(declare-sort S29 0)
(declare-sort S30 0)
(declare-sort S31 0)
(declare-sort S32 0)
(declare-sort S33 0)
(declare-sort S34 0)
(declare-sort S35 0)
(declare-sort S36 0)
(declare-sort S37 0)
(declare-sort S38 0)
(declare-sort S39 0)
(declare-sort S40 0)
(declare-sort S41 0)
(declare-sort S42 0)
(declare-sort S43 0)
(declare-sort S44 0)
(declare-sort S45 0)
(declare-sort S46 0)
(declare-sort S47 0)
(declare-sort S48 0)
(declare-sort S49 0)
(declare-fun f1 () S1)
(declare-fun f2 () S1)
(declare-fun f3 (S2 S1) S1)
(declare-fun f4 () S2)
(declare-fun f5 (S3 S4) S1)
(declare-fun f6 (S5 S3) S3)
(declare-fun f7 () S5)
(declare-fun f8 (S6 S4) S5)
(declare-fun f9 () S6)
(declare-fun f10 () S3)
(declare-fun f11 (S7 S4) S3)
(declare-fun f12 () S7)
(declare-fun f13 () S7)
(declare-fun f14 () S6)
(declare-fun f15 (S8 S3) S1)
(declare-fun f16 (S9 S4) S8)
(declare-fun f17 () S9)
(declare-fun f18 () S6)
(declare-fun f19 () S6)
(declare-fun f20 (S10 S3) S5)
(declare-fun f21 () S10)
(declare-fun f22 () S6)
(declare-fun f23 (S13 S11) S1)
(declare-fun f24 (S14 S12) S13)
(declare-fun f25 (S15 S11) S14)
(declare-fun f26 () S15)
(declare-fun f27 (S16 S12) S14)
(declare-fun f28 (S17 S14) S16)
(declare-fun f29 () S17)
(declare-fun f30 (S18 S13) S14)
(declare-fun f31 (S19 S14) S18)
(declare-fun f32 () S19)
(declare-fun f33 (S20 S14) S14)
(declare-fun f34 (S21 S1) S20)
(declare-fun f35 () S21)
(declare-fun f36 (S22 S4) S7)
(declare-fun f37 (S23 S1) S22)
(declare-fun f38 () S23)
(declare-fun f39 (S24 S1) S2)
(declare-fun f40 () S24)
(declare-fun f41 () S3)
(declare-fun f42 () S3)
(declare-fun f43 (S26 S25) S3)
(declare-fun f44 () S26)
(declare-fun f45 (S27 S14) S4)
(declare-fun f46 (S28 S29) S27)
(declare-fun f47 (S30 S14) S28)
(declare-fun f48 () S30)
(declare-fun f49 () S14)
(declare-fun f50 (S31 S29) S29)
(declare-fun f51 (S32 S13) S31)
(declare-fun f52 () S32)
(declare-fun f53 () S13)
(declare-fun f54 () S29)
(declare-fun f55 () S19)
(declare-fun f56 (S33 S13) S13)
(declare-fun f57 (S34 S2) S33)
(declare-fun f58 () S34)
(declare-fun f59 (S35 S3) S8)
(declare-fun f60 () S35)
(declare-fun f61 () S35)
(declare-fun f62 () S5)
(declare-fun f63 (S36 S29) S31)
(declare-fun f64 (S37 S13) S36)
(declare-fun f65 () S37)
(declare-fun f66 (S38 S3) S4)
(declare-fun f67 () S38)
(declare-fun f68 () S1)
(declare-fun f69 () S29)
(declare-fun f70 () S36)
(declare-fun f71 (S39 S25) S13)
(declare-fun f72 (S40 S11) S39)
(declare-fun f73 (S41 S29) S40)
(declare-fun f74 () S41)
(declare-fun f75 () S38)
(declare-fun f76 (S43 S42) S5)
(declare-fun f77 () S43)
(declare-fun f78 (S44 S38) S1)
(declare-fun f79 (S45 S42) S44)
(declare-fun f80 () S45)
(declare-fun f81 (S46 S42) S6)
(declare-fun f82 () S46)
(declare-fun f83 () S8)
(declare-fun f84 (S47 S4) S4)
(declare-fun f85 (S42 S4) S47)
(declare-fun f86 (S48 S42) S38)
(declare-fun f87 () S48)
(declare-fun f88 (S49 S4) S38)
(declare-fun f89 () S49)
(assert (not (= f1 f2)))
(assert (forall ((?v0 S1)) (= (= (f3 f4 ?v0) f1) (not (= ?v0 f1)))))
(assert (forall ((?v0 S3) (?v1 S4)) (= (= (f5 (f6 f7 ?v0) ?v1) f1) (= ?v0 (f6 (f8 f9 ?v1) f10)))))
(assert (forall ((?v0 S4) (?v1 S4)) (= (= (f5 (f11 f12 ?v0) ?v1) f1) (= ?v0 ?v1))))
(assert (forall ((?v0 S4) (?v1 S4)) (= (= (f5 (f11 f13 ?v0) ?v1) f1) (= ?v1 ?v0))))
(assert (forall ((?v0 S4) (?v1 S3) (?v2 S4)) (= (= (f5 (f6 (f8 f14 ?v0) ?v1) ?v2) f1) (or (= ?v2 ?v0) (= (f15 (f16 f17 ?v2) ?v1) f1)))))
(assert (forall ((?v0 S4) (?v1 S3) (?v2 S4)) (= (= (f5 (f6 (f8 f18 ?v0) ?v1) ?v2) f1) (and (= ?v0 ?v2) (= (f5 ?v1 ?v2) f1)))))
(assert (forall ((?v0 S4) (?v1 S3) (?v2 S4)) (= (= (f5 (f6 (f8 f19 ?v0) ?v1) ?v2) f1) (and (= ?v2 ?v0) (= (f5 ?v1 ?v2) f1)))))
(assert (forall ((?v0 S3) (?v1 S3) (?v2 S4)) (= (= (f5 (f6 (f20 f21 ?v0) ?v1) ?v2) f1) (and (= (f5 ?v0 ?v2) f1) (= (f5 ?v1 ?v2) f1)))))
(assert (forall ((?v0 S4) (?v1 S3) (?v2 S4)) (= (= (f5 (f6 (f8 f22 ?v0) ?v1) ?v2) f1) (=> (not (= ?v2 ?v0)) (= (f5 ?v1 ?v2) f1)))))
(assert (forall ((?v0 S11) (?v1 S12) (?v2 S11)) (= (= (f23 (f24 (f25 f26 ?v0) ?v1) ?v2) f1) (= ?v2 ?v0))))
(assert (forall ((?v0 S14) (?v1 S12) (?v2 S12)) (= (f24 (f27 (f28 f29 ?v0) ?v1) ?v2) (f24 ?v0 ?v1))))
(assert (forall ((?v0 S14) (?v1 S13) (?v2 S12) (?v3 S11)) (= (= (f23 (f24 (f30 (f31 f32 ?v0) ?v1) ?v2) ?v3) f1) (and (= (f23 (f24 ?v0 ?v2) ?v3) f1) (not (= (f23 ?v1 ?v3) f1))))))
(assert (forall ((?v0 S1) (?v1 S14) (?v2 S12) (?v3 S11)) (= (= (f23 (f24 (f33 (f34 f35 ?v0) ?v1) ?v2) ?v3) f1) (and (= (f23 (f24 ?v1 ?v2) ?v3) f1) (= ?v0 f1)))))
(assert (forall ((?v0 S1) (?v1 S4) (?v2 S4) (?v3 S4)) (let ((?v_0 (= ?v0 f1))) (= (= (f5 (f11 (f36 (f37 f38 ?v0) ?v1) ?v2) ?v3) f1) (and (=> (= ?v_0 true) (= ?v3 ?v1)) (=> (= ?v_0 false) (= ?v3 ?v2)))))))
(assert (forall ((?v0 S1) (?v1 S1)) (= (= (f3 (f39 f40 ?v0) ?v1) f1) (= ?v0 f1))))
(assert (forall ((?v0 S4)) (= (= (f5 f41 ?v0) f1) false)))
(assert (not (forall ((?v0 S25)) (=> (forall ((?v1 S4)) (=> (= (f15 (f16 f17 ?v1) f42) f1) (= (f5 (f43 f44 ?v0) ?v1) f1))) (forall ((?v1 S4)) (=> (= (f15 (f16 f17 ?v1) (f6 (f8 f9 (f45 (f46 (f47 f48 f49) (f50 (f51 f52 f53) f54)) (f30 (f31 f55 f49) (f56 (f57 f58 f4) f53)))) f10)) f1) (= (f5 (f43 f44 ?v0) ?v1) f1)))))))
(assert (forall ((?v0 S25)) (=> (forall ((?v1 S4)) (=> (= (f15 (f16 f17 ?v1) f42) f1) (= (f5 (f43 f44 ?v0) ?v1) f1))) (forall ((?v1 S4)) (=> (= (f15 (f16 f17 ?v1) (f6 (f8 f9 (f45 (f46 (f47 f48 (f30 (f31 f55 f49) f53)) f54) f49)) f10)) f1) (= (f5 (f43 f44 ?v0) ?v1) f1))))))
(assert (forall ((?v0 S14) (?v1 S29) (?v2 S14) (?v3 S14) (?v4 S29) (?v5 S14)) (= (= (f45 (f46 (f47 f48 ?v0) ?v1) ?v2) (f45 (f46 (f47 f48 ?v3) ?v4) ?v5)) (and (= ?v0 ?v3) (and (= ?v1 ?v4) (= ?v2 ?v5))))))
(assert (forall ((?v0 S3) (?v1 S3)) (= (= (f15 (f59 f60 ?v0) ?v1) f1) (forall ((?v2 S25)) (=> (forall ((?v3 S4)) (=> (= (f15 (f16 f17 ?v3) ?v0) f1) (= (f5 (f43 f44 ?v2) ?v3) f1))) (forall ((?v3 S4)) (=> (= (f15 (f16 f17 ?v3) ?v1) f1) (= (f5 (f43 f44 ?v2) ?v3) f1))))))))
(assert (forall ((?v0 S3) (?v1 S14) (?v2 S13) (?v3 S29)) (let ((?v_0 (f59 f61 ?v0)) (?v_1 (f31 f55 ?v1))) (=> (= (f15 ?v_0 (f6 (f8 f9 (f45 (f46 (f47 f48 (f30 ?v_1 ?v2)) ?v3) ?v1)) f10)) f1) (= (f15 ?v_0 (f6 (f8 f9 (f45 (f46 (f47 f48 ?v1) (f50 (f51 f52 ?v2) ?v3)) (f30 ?v_1 (f56 (f57 f58 f4) ?v2)))) f10)) f1)))))
(assert (forall ((?v0 S4) (?v1 S4) (?v2 S3)) (let ((?v_0 (f16 f17 ?v0))) (=> (= (f15 ?v_0 (f6 (f8 f9 ?v1) ?v2)) f1) (=> (=> (= ?v0 ?v1) false) (=> (=> (= (f15 ?v_0 ?v2) f1) false) false))))))
(assert (forall ((?v0 S4) (?v1 S3) (?v2 S4)) (let ((?v_0 (f16 f17 ?v0))) (=> (=> (not (= (f15 ?v_0 ?v1) f1)) (= ?v0 ?v2)) (= (f15 ?v_0 (f6 (f8 f9 ?v2) ?v1)) f1)))))
(assert (forall ((?v0 S4)) (=> (= (f15 (f16 f17 ?v0) f10) f1) false)))
(assert (forall ((?v0 S4) (?v1 S3)) (not (= f10 (f6 (f8 f9 ?v0) ?v1)))))
(assert (forall ((?v0 S4) (?v1 S3)) (not (= (f6 (f8 f9 ?v0) ?v1) f10))))
(assert (forall ((?v0 S4) (?v1 S4)) (= (= (f15 (f16 f17 ?v0) (f6 (f8 f9 ?v1) f10)) f1) (= ?v0 ?v1))))
(assert (forall ((?v0 S4) (?v1 S4) (?v2 S4) (?v3 S4)) (= (= (f6 (f8 f9 ?v0) (f6 (f8 f9 ?v1) f10)) (f6 (f8 f9 ?v2) (f6 (f8 f9 ?v3) f10))) (or (and (= ?v0 ?v2) (= ?v1 ?v3)) (and (= ?v0 ?v3) (= ?v1 ?v2))))))
(assert (forall ((?v0 S4) (?v1 S4)) (=> (= (f15 (f16 f17 ?v0) (f6 (f8 f9 ?v1) f10)) f1) (=> (=> (= ?v0 ?v1) false) false))))
(assert (forall ((?v0 S3) (?v1 S3) (?v2 S3)) (let ((?v_0 (f59 f61 ?v2))) (=> (= (f15 (f59 f61 ?v0) ?v1) f1) (=> (= (f15 ?v_0 ?v0) f1) (= (f15 ?v_0 ?v1) f1))))))
(assert (forall ((?v0 S3)) (= (f15 (f59 f61 ?v0) f10) f1)))
(assert (forall ((?v0 S3) (?v1 S4) (?v2 S3)) (let ((?v_0 (f59 f61 ?v0)) (?v_1 (f8 f9 ?v1))) (=> (= (f15 ?v_0 (f6 ?v_1 ?v2)) f1) (and (= (f15 ?v_0 (f6 ?v_1 f10)) f1) (= (f15 ?v_0 ?v2) f1))))))
(assert (forall ((?v0 S3) (?v1 S4) (?v2 S3)) (let ((?v_0 (f59 f61 ?v0)) (?v_1 (f8 f9 ?v1))) (=> (= (f15 ?v_0 (f6 ?v_1 f10)) f1) (=> (= (f15 ?v_0 ?v2) f1) (= (f15 ?v_0 (f6 ?v_1 ?v2)) f1))))))
(assert (forall ((?v0 S3) (?v1 S4)) (=> (= ?v0 f10) (not (= (f15 (f16 f17 ?v1) ?v0) f1)))))
(assert (forall ((?v0 S3)) (= (= (f6 f62 ?v0) f10) (forall ((?v1 S4)) (not (= (f5 ?v0 ?v1) f1))))))
(assert (forall ((?v0 S4)) (= (= (f15 (f16 f17 ?v0) f10) f1) false)))
(assert (forall ((?v0 S3)) (= (= f10 (f6 f62 ?v0)) (forall ((?v1 S4)) (not (= (f5 ?v0 ?v1) f1))))))
(assert (forall ((?v0 S3)) (= (forall ((?v1 S4)) (=> (= (f15 (f16 f17 ?v1) f10) f1) (= (f5 ?v0 ?v1) f1))) true)))
(assert (forall ((?v0 S3)) (= (exists ((?v1 S4)) (and (= (f15 (f16 f17 ?v1) f10) f1) (= (f5 ?v0 ?v1) f1))) false)))
(assert (forall ((?v0 S3)) (= (exists ((?v1 S4)) (= (f15 (f16 f17 ?v1) ?v0) f1)) (not (= ?v0 f10)))))
(assert (forall ((?v0 S3)) (= (forall ((?v1 S4)) (not (= (f15 (f16 f17 ?v1) ?v0) f1))) (= ?v0 f10))))
(assert (= f10 (f6 f62 f41)))
(assert (forall ((?v0 S4) (?v1 S3)) (=> (= (f15 (f16 f17 ?v0) ?v1) f1) (= (f6 (f8 f9 ?v0) ?v1) ?v1))))
(assert (forall ((?v0 S4) (?v1 S3) (?v2 S4)) (let ((?v_0 (f16 f17 ?v0))) (=> (= (f15 ?v_0 ?v1) f1) (= (f15 ?v_0 (f6 (f8 f9 ?v2) ?v1)) f1)))))
(assert (forall ((?v0 S4) (?v1 S3) (?v2 S3)) (let ((?v_0 (f16 f17 ?v0)) (?v_1 (f8 f9 ?v0))) (=> (not (= (f15 ?v_0 ?v1) f1)) (=> (not (= (f15 ?v_0 ?v2) f1)) (= (= (f6 ?v_1 ?v1) (f6 ?v_1 ?v2)) (= ?v1 ?v2)))))))
(assert (forall ((?v0 S4) (?v1 S3) (?v2 S4)) (= (= (f5 (f6 (f8 f9 ?v0) ?v1) ?v2) f1) (or (= ?v0 ?v2) (= (f5 ?v1 ?v2) f1)))))
(assert (forall ((?v0 S4) (?v1 S4) (?v2 S3)) (let ((?v_0 (f16 f17 ?v0))) (= (= (f15 ?v_0 (f6 (f8 f9 ?v1) ?v2)) f1) (or (= ?v0 ?v1) (= (f15 ?v_0 ?v2) f1))))))
(assert (forall ((?v0 S4) (?v1 S4) (?v2 S3)) (let ((?v_1 (f8 f9 ?v0)) (?v_0 (f8 f9 ?v1))) (= (f6 ?v_1 (f6 ?v_0 ?v2)) (f6 ?v_0 (f6 ?v_1 ?v2))))))
(assert (forall ((?v0 S4) (?v1 S3)) (let ((?v_0 (f8 f9 ?v0))) (let ((?v_1 (f6 ?v_0 ?v1))) (= (f6 ?v_0 ?v_1) ?v_1)))))
(assert (forall ((?v0 S4) (?v1 S3)) (= (f6 (f8 f9 ?v0) (f6 f62 ?v1)) (f6 f62 (f6 (f8 f22 ?v0) ?v1)))))
(assert (forall ((?v0 S4) (?v1 S3)) (= (f6 (f8 f9 ?v0) ?v1) (f6 f62 (f6 (f8 f14 ?v0) ?v1)))))
(assert (forall ((?v0 S4) (?v1 S3)) (= (f15 (f16 f17 ?v0) (f6 (f8 f9 ?v0) ?v1)) f1)))
(assert (forall ((?v0 S4) (?v1 S4)) (=> (= (f6 (f8 f9 ?v0) f10) (f6 (f8 f9 ?v1) f10)) (= ?v0 ?v1))))
(assert (forall ((?v0 S3) (?v1 S14) (?v2 S29) (?v3 S14) (?v4 S14)) (let ((?v_0 (f59 f61 ?v0))) (=> (= (f15 ?v_0 (f6 (f8 f9 (f45 (f46 (f47 f48 ?v1) ?v2) ?v3)) f10)) f1) (=> (forall ((?v5 S12) (?v6 S11)) (=> (= (f23 (f24 ?v4 ?v5) ?v6) f1) (= (f23 (f24 ?v1 ?v5) ?v6) f1))) (= (f15 ?v_0 (f6 (f8 f9 (f45 (f46 (f47 f48 ?v4) ?v2) ?v3)) f10)) f1))))))
(assert (forall ((?v0 S3) (?v1 S14) (?v2 S29) (?v3 S14) (?v4 S14)) (let ((?v_0 (f59 f61 ?v0)) (?v_1 (f46 (f47 f48 ?v1) ?v2))) (=> (= (f15 ?v_0 (f6 (f8 f9 (f45 ?v_1 ?v3)) f10)) f1) (=> (forall ((?v5 S12) (?v6 S11)) (=> (= (f23 (f24 ?v3 ?v5) ?v6) f1) (= (f23 (f24 ?v4 ?v5) ?v6) f1))) (= (f15 ?v_0 (f6 (f8 f9 (f45 ?v_1 ?v4)) f10)) f1))))))
(assert (forall ((?v0 S3) (?v1 S14) (?v2 S13) (?v3 S29) (?v4 S14) (?v5 S29)) (let ((?v_0 (f59 f61 ?v0)) (?v_1 (f31 f55 ?v1))) (=> (= (f15 ?v_0 (f6 (f8 f9 (f45 (f46 (f47 f48 (f30 ?v_1 ?v2)) ?v3) ?v4)) f10)) f1) (=> (= (f15 ?v_0 (f6 (f8 f9 (f45 (f46 (f47 f48 (f30 ?v_1 (f56 (f57 f58 f4) ?v2))) ?v5) ?v4)) f10)) f1) (= (f15 ?v_0 (f6 (f8 f9 (f45 (f46 (f47 f48 ?v1) (f50 (f63 (f64 f65 ?v2) ?v3) ?v5)) ?v4)) f10)) f1))))))
(assert (forall ((?v0 S3) (?v1 S14) (?v2 S29) (?v3 S14) (?v4 S14) (?v5 S14)) (let ((?v_0 (f59 f61 ?v0))) (=> (= (f15 ?v_0 (f6 (f8 f9 (f45 (f46 (f47 f48 ?v1) ?v2) ?v3)) f10)) f1) (=> (forall ((?v6 S12) (?v7 S11)) (=> (= (f23 (f24 ?v4 ?v6) ?v7) f1) (forall ((?v8 S11)) (=> (forall ((?v9 S12)) (=> (= (f23 (f24 ?v1 ?v9) ?v7) f1) (= (f23 (f24 ?v3 ?v9) ?v8) f1))) (= (f23 (f24 ?v5 ?v6) ?v8) f1))))) (= (f15 ?v_0 (f6 (f8 f9 (f45 (f46 (f47 f48 ?v4) ?v2) ?v5)) f10)) f1))))))
(assert (forall ((?v0 S4)) (= (f66 f67 (f6 (f8 f9 ?v0) f10)) ?v0)))
(assert (forall ((?v0 S4)) (= (= (f5 f10 ?v0) f1) (= f68 f1))))
(assert (forall ((?v0 S4)) (= (= (f5 f10 ?v0) f1) (= f68 f1))))
(assert (forall ((?v0 S3) (?v1 S14)) (= (f15 (f59 f61 ?v0) (f6 (f8 f9 (f45 (f46 (f47 f48 ?v1) f69) ?v1)) f10)) f1)))
(assert (forall ((?v0 S3) (?v1 S14) (?v2 S29) (?v3 S14) (?v4 S29) (?v5 S14)) (let ((?v_0 (f59 f61 ?v0)) (?v_1 (f47 f48 ?v1))) (=> (= (f15 ?v_0 (f6 (f8 f9 (f45 (f46 ?v_1 ?v2) ?v3)) f10)) f1) (=> (= (f15 ?v_0 (f6 (f8 f9 (f45 (f46 (f47 f48 ?v3) ?v4) ?v5)) f10)) f1) (= (f15 ?v_0 (f6 (f8 f9 (f45 (f46 ?v_1 (f50 (f63 f70 ?v2) ?v4)) ?v5)) f10)) f1))))))
(assert (forall ((?v0 S4)) (=> (forall ((?v1 S14) (?v2 S29) (?v3 S14)) (=> (= ?v0 (f45 (f46 (f47 f48 ?v1) ?v2) ?v3)) false)) false)))
(assert (forall ((?v0 S4) (?v1 S3)) (=> (= (f15 (f16 f17 ?v0) ?v1) f1) (=> (forall ((?v2 S3)) (=> (= ?v1 (f6 (f8 f9 ?v0) ?v2)) (=> (not (= (f15 (f16 f17 ?v0) ?v2) f1)) false))) false))))
(assert (forall ((?v0 S29) (?v1 S29)) (not (= (f50 (f63 f70 ?v0) ?v1) f69))))
(assert (forall ((?v0 S29) (?v1 S29)) (not (= f69 (f50 (f63 f70 ?v0) ?v1)))))
(assert (forall ((?v0 S13) (?v1 S29) (?v2 S29)) (not (= (f50 (f63 (f64 f65 ?v0) ?v1) ?v2) f69))))
(assert (forall ((?v0 S13) (?v1 S29) (?v2 S29)) (not (= f69 (f50 (f63 (f64 f65 ?v0) ?v1) ?v2)))))
(assert (forall ((?v0 S13) (?v1 S29) (?v2 S29) (?v3 S29) (?v4 S29)) (not (= (f50 (f63 (f64 f65 ?v0) ?v1) ?v2) (f50 (f63 f70 ?v3) ?v4)))))
(assert (forall ((?v0 S29) (?v1 S29) (?v2 S13) (?v3 S29) (?v4 S29)) (not (= (f50 (f63 f70 ?v0) ?v1) (f50 (f63 (f64 f65 ?v2) ?v3) ?v4)))))
(assert (forall ((?v0 S13) (?v1 S29)) (not (= f69 (f50 (f51 f52 ?v0) ?v1)))))
(assert (forall ((?v0 S13) (?v1 S29)) (not (= (f50 (f51 f52 ?v0) ?v1) f69))))
(assert (forall ((?v0 S13) (?v1 S29) (?v2 S13) (?v3 S29)) (= (= (f50 (f51 f52 ?v0) ?v1) (f50 (f51 f52 ?v2) ?v3)) (and (= ?v0 ?v2) (= ?v1 ?v3)))))
(assert (forall ((?v0 S13) (?v1 S29) (?v2 S29) (?v3 S13) (?v4 S29) (?v5 S29)) (= (= (f50 (f63 (f64 f65 ?v0) ?v1) ?v2) (f50 (f63 (f64 f65 ?v3) ?v4) ?v5)) (and (= ?v0 ?v3) (and (= ?v1 ?v4) (= ?v2 ?v5))))))
(assert (forall ((?v0 S29) (?v1 S29) (?v2 S29) (?v3 S29)) (= (= (f50 (f63 f70 ?v0) ?v1) (f50 (f63 f70 ?v2) ?v3)) (and (= ?v0 ?v2) (= ?v1 ?v3)))))
(assert (forall ((?v0 S13) (?v1 S29) (?v2 S29) (?v3 S13) (?v4 S29)) (not (= (f50 (f63 (f64 f65 ?v0) ?v1) ?v2) (f50 (f51 f52 ?v3) ?v4)))))
(assert (forall ((?v0 S13) (?v1 S29) (?v2 S13) (?v3 S29) (?v4 S29)) (not (= (f50 (f51 f52 ?v0) ?v1) (f50 (f63 (f64 f65 ?v2) ?v3) ?v4)))))
(assert (forall ((?v0 S13) (?v1 S29) (?v2 S29) (?v3 S29)) (not (= (f50 (f51 f52 ?v0) ?v1) (f50 (f63 f70 ?v2) ?v3)))))
(assert (forall ((?v0 S29) (?v1 S29) (?v2 S13) (?v3 S29)) (not (= (f50 (f63 f70 ?v0) ?v1) (f50 (f51 f52 ?v2) ?v3)))))
(assert (forall ((?v0 S4) (?v1 S3)) (=> (= (f15 (f16 f17 ?v0) ?v1) f1) (exists ((?v2 S3)) (and (= ?v1 (f6 (f8 f9 ?v0) ?v2)) (not (= (f15 (f16 f17 ?v0) ?v2) f1)))))))
(assert (forall ((?v0 S3)) (=> (forall ((?v1 S4)) (=> (= (f15 (f16 f17 ?v1) ?v0) f1) false)) (= ?v0 f10))))
(assert (forall ((?v0 S14) (?v1 S3) (?v2 S29) (?v3 S14)) (=> (forall ((?v4 S12) (?v5 S11)) (=> (= (f23 (f24 ?v0 ?v4) ?v5) f1) (exists ((?v6 S14) (?v7 S14)) (and (= (f15 (f59 f61 ?v1) (f6 (f8 f9 (f45 (f46 (f47 f48 ?v6) ?v2) ?v7)) f10)) f1) (forall ((?v8 S11)) (=> (forall ((?v9 S12)) (=> (= (f23 (f24 ?v6 ?v9) ?v5) f1) (= (f23 (f24 ?v7 ?v9) ?v8) f1))) (= (f23 (f24 ?v3 ?v4) ?v8) f1))))))) (= (f15 (f59 f61 ?v1) (f6 (f8 f9 (f45 (f46 (f47 f48 ?v0) ?v2) ?v3)) f10)) f1))))
(assert (forall ((?v0 S2) (?v1 S13) (?v2 S13) (?v3 S11)) (=> (= (f56 (f57 f58 ?v0) ?v1) ?v2) (= (= (f3 ?v0 (f23 ?v1 ?v3)) f1) (= (f23 ?v2 ?v3) f1)))))
(assert (forall ((?v0 S2) (?v1 S13) (?v2 S11)) (= (= (f23 (f56 (f57 f58 ?v0) ?v1) ?v2) f1) (= (f3 ?v0 (f23 ?v1 ?v2)) f1))))
(assert (forall ((?v0 S2) (?v1 S13) (?v2 S11)) (= (= (f23 (f56 (f57 f58 ?v0) ?v1) ?v2) f1) (= (f3 ?v0 (f23 ?v1 ?v2)) f1))))
(assert (forall ((?v0 S3)) (= (not (= ?v0 f10)) (exists ((?v1 S4) (?v2 S3)) (and (= ?v0 (f6 (f8 f9 ?v1) ?v2)) (not (= (f15 (f16 f17 ?v1) ?v2) f1)))))))
(assert (forall ((?v0 S4)) (= (= (f5 f10 ?v0) f1) (= (f15 (f16 f17 ?v0) f10) f1))))
(assert (forall ((?v0 S4) (?v1 S3)) (= (= (f15 (f16 f17 ?v0) ?v1) f1) (= (f5 ?v1 ?v0) f1))))
(assert (forall ((?v0 S3)) (= (f6 f62 ?v0) ?v0)))
(assert (forall ((?v0 S25) (?v1 S14) (?v2 S29) (?v3 S14)) (= (= (f5 (f43 f44 ?v0) (f45 (f46 (f47 f48 ?v1) ?v2) ?v3)) f1) (forall ((?v4 S12) (?v5 S11)) (=> (= (f23 (f24 ?v1 ?v4) ?v5) f1) (forall ((?v6 S11)) (=> (= (f23 (f71 (f72 (f73 f74 ?v2) ?v5) ?v0) ?v6) f1) (= (f23 (f24 ?v3 ?v4) ?v6) f1))))))))
(assert (forall ((?v0 S3) (?v1 S14) (?v2 S13) (?v3 S29)) (= (f15 (f59 f61 ?v0) (f6 (f8 f9 (f45 (f46 (f47 f48 (f30 (f31 f32 ?v1) ?v2)) (f50 (f51 f52 ?v2) ?v3)) ?v1)) f10)) f1)))
(assert (forall ((?v0 S1) (?v1 S13) (?v2 S11)) (= (= (f23 (f56 (f57 f58 (f39 f40 ?v0)) ?v1) ?v2) f1) (= ?v0 f1))))
(assert (forall ((?v0 S4)) (= (f6 f62 (f11 f12 ?v0)) (f6 (f8 f9 ?v0) f10))))
(assert (forall ((?v0 S4)) (= (f6 f62 (f11 f13 ?v0)) (f6 (f8 f9 ?v0) f10))))
(assert (forall ((?v0 S4) (?v1 S3)) (= (f6 f62 (f6 (f8 f18 ?v0) ?v1)) (ite (= (f5 ?v1 ?v0) f1) (f6 (f8 f9 ?v0) f10) f10))))
(assert (forall ((?v0 S4) (?v1 S3)) (= (f6 f62 (f6 (f8 f19 ?v0) ?v1)) (ite (= (f5 ?v1 ?v0) f1) (f6 (f8 f9 ?v0) f10) f10))))
(assert (forall ((?v0 S14) (?v1 S13) (?v2 S12) (?v3 S11)) (= (= (f23 (f24 (f30 (f31 f55 ?v0) ?v1) ?v2) ?v3) f1) (and (= (f23 (f24 ?v0 ?v2) ?v3) f1) (= (f23 ?v1 ?v3) f1)))))
(assert (forall ((?v0 S4) (?v1 S3)) (= (f6 (f8 f9 ?v0) ?v1) (f6 f62 (f6 (f8 f14 ?v0) ?v1)))))
(assert (forall ((?v0 S1) (?v1 S3) (?v2 S14) (?v3 S29) (?v4 S14)) (let ((?v_0 (f59 f61 ?v1))) (=> (=> (= ?v0 f1) (= (f15 ?v_0 (f6 (f8 f9 (f45 (f46 (f47 f48 ?v2) ?v3) ?v4)) f10)) f1)) (= (f15 ?v_0 (f6 (f8 f9 (f45 (f46 (f47 f48 (f33 (f34 f35 ?v0) ?v2)) ?v3) ?v4)) f10)) f1)))))
(assert (forall ((?v0 S11) (?v1 S25)) (= (f23 (f71 (f72 (f73 f74 f69) ?v0) ?v1) ?v0) f1)))
(assert (forall ((?v0 S11) (?v1 S25) (?v2 S11)) (=> (= (f23 (f71 (f72 (f73 f74 f69) ?v0) ?v1) ?v2) f1) (=> (=> (= ?v2 ?v0) false) false))))
(assert (forall ((?v0 S29) (?v1 S11) (?v2 S25) (?v3 S11) (?v4 S29) (?v5 S11)) (=> (= (f23 (f71 (f72 (f73 f74 ?v0) ?v1) ?v2) ?v3) f1) (=> (= (f23 (f71 (f72 (f73 f74 ?v4) ?v3) ?v2) ?v5) f1) (= (f23 (f71 (f72 (f73 f74 (f50 (f63 f70 ?v0) ?v4)) ?v1) ?v2) ?v5) f1)))))
(assert (forall ((?v0 S13) (?v1 S11) (?v2 S29) (?v3 S25) (?v4 S11) (?v5 S29)) (=> (not (= (f23 ?v0 ?v1) f1)) (=> (= (f23 (f71 (f72 (f73 f74 ?v2) ?v1) ?v3) ?v4) f1) (= (f23 (f71 (f72 (f73 f74 (f50 (f63 (f64 f65 ?v0) ?v5) ?v2)) ?v1) ?v3) ?v4) f1)))))
(assert (forall ((?v0 S13) (?v1 S11) (?v2 S29) (?v3 S25) (?v4 S11) (?v5 S29)) (=> (= (f23 ?v0 ?v1) f1) (=> (= (f23 (f71 (f72 (f73 f74 ?v2) ?v1) ?v3) ?v4) f1) (= (f23 (f71 (f72 (f73 f74 (f50 (f63 (f64 f65 ?v0) ?v2) ?v5)) ?v1) ?v3) ?v4) f1)))))
(assert (forall ((?v0 S13) (?v1 S29) (?v2 S29) (?v3 S11) (?v4 S25) (?v5 S11)) (let ((?v_0 (= (f23 ?v0 ?v3) f1))) (=> (= (f23 (f71 (f72 (f73 f74 (f50 (f63 (f64 f65 ?v0) ?v1) ?v2)) ?v3) ?v4) ?v5) f1) (=> (=> ?v_0 (=> (= (f23 (f71 (f72 (f73 f74 ?v1) ?v3) ?v4) ?v5) f1) false)) (=> (=> (not ?v_0) (=> (= (f23 (f71 (f72 (f73 f74 ?v2) ?v3) ?v4) ?v5) f1) false)) false))))))
(assert (forall ((?v0 S13) (?v1 S11) (?v2 S29) (?v3 S25)) (=> (not (= (f23 ?v0 ?v1) f1)) (= (f23 (f71 (f72 (f73 f74 (f50 (f51 f52 ?v0) ?v2)) ?v1) ?v3) ?v1) f1))))
(assert (forall ((?v0 S13) (?v1 S11) (?v2 S29) (?v3 S25) (?v4 S11) (?v5 S11)) (let ((?v_0 (f73 f74 (f50 (f51 f52 ?v0) ?v2)))) (=> (= (f23 ?v0 ?v1) f1) (=> (= (f23 (f71 (f72 (f73 f74 ?v2) ?v1) ?v3) ?v4) f1) (=> (= (f23 (f71 (f72 ?v_0 ?v4) ?v3) ?v5) f1) (= (f23 (f71 (f72 ?v_0 ?v1) ?v3) ?v5) f1)))))))
(assert (forall ((?v0 S29) (?v1 S29) (?v2 S11) (?v3 S25) (?v4 S11)) (=> (= (f23 (f71 (f72 (f73 f74 (f50 (f63 f70 ?v0) ?v1)) ?v2) ?v3) ?v4) f1) (=> (forall ((?v5 S11)) (=> (= (f23 (f71 (f72 (f73 f74 ?v0) ?v2) ?v3) ?v5) f1) (=> (= (f23 (f71 (f72 (f73 f74 ?v1) ?v5) ?v3) ?v4) f1) false))) false))))
(assert (forall ((?v0 S14) (?v1 S3) (?v2 S29) (?v3 S14)) (=> (forall ((?v4 S12) (?v5 S11)) (=> (= (f23 (f24 ?v0 ?v4) ?v5) f1) (= (f15 (f59 f61 ?v1) (f6 (f8 f9 (f45 (f46 (f47 f48 (f25 f26 ?v5)) ?v2) (f27 (f28 f29 ?v3) ?v4))) f10)) f1))) (= (f15 (f59 f61 ?v1) (f6 (f8 f9 (f45 (f46 (f47 f48 ?v0) ?v2) ?v3)) f10)) f1))))
(assert (forall ((?v0 S13) (?v1 S29) (?v2 S11) (?v3 S25) (?v4 S11)) (=> (= (f23 (f71 (f72 (f73 f74 (f50 (f51 f52 ?v0) ?v1)) ?v2) ?v3) ?v4) f1) (=> (=> (= ?v4 ?v2) (=> (not (= (f23 ?v0 ?v2) f1)) false)) (=> (forall ((?v5 S11)) (=> (= (f23 ?v0 ?v2) f1) (=> (= (f23 (f71 (f72 (f73 f74 ?v1) ?v2) ?v3) ?v5) f1) (=> (= (f23 (f71 (f72 (f73 f74 (f50 (f51 f52 ?v0) ?v1)) ?v5) ?v3) ?v4) f1) false)))) false)))))
(assert (forall ((?v0 S3)) (= (f66 f67 ?v0) (f66 f75 (f6 f7 ?v0)))))
(assert (forall ((?v0 S29) (?v1 S11) (?v2 S25) (?v3 S11) (?v4 S29) (?v5 S11) (?v6 S25) (?v7 S11)) (=> (= (f23 (f71 (f72 (f73 f74 ?v0) ?v1) ?v2) ?v3) f1) (=> (= (f23 (f71 (f72 (f73 f74 ?v4) ?v5) ?v6) ?v7) f1) (exists ((?v8 S25)) (and (= (f23 (f71 (f72 (f73 f74 ?v0) ?v1) ?v8) ?v3) f1) (= (f23 (f71 (f72 (f73 f74 ?v4) ?v5) ?v8) ?v7) f1)))))))
(assert (forall ((?v0 S1) (?v1 S4) (?v2 S4)) (= (ite (= ?v0 f1) ?v1 ?v2) (f66 f75 (f11 (f36 (f37 f38 ?v0) ?v1) ?v2)))))
(assert (forall ((?v0 S4)) (= (f66 f75 (f11 f13 ?v0)) ?v0)))
(assert (forall ((?v0 S4)) (= (f66 f75 (f11 f12 ?v0)) ?v0)))
(assert (forall ((?v0 S42) (?v1 S4) (?v2 S4)) (= (= (f5 (f6 (f76 f77 ?v0) (f6 (f8 f9 ?v1) f10)) ?v2) f1) (= ?v1 ?v2))))
(assert (forall ((?v0 S42) (?v1 S38) (?v2 S4)) (=> (= (f78 (f79 f80 ?v0) ?v1) f1) (= (f66 ?v1 (f6 (f8 f9 ?v2) f10)) ?v2))))
(assert (forall ((?v0 S42) (?v1 S4)) (=> (= (f5 (f6 (f76 f77 ?v0) f10) ?v1) f1) false)))
(assert (forall ((?v0 S42) (?v1 S3) (?v2 S4)) (=> (= (f5 (f6 (f76 f77 ?v0) ?v1) ?v2) f1) (not (= ?v1 f10)))))
(assert (forall ((?v0 S3) (?v1 S4)) (=> (= (f5 ?v0 ?v1) f1) (=> (forall ((?v2 S4)) (=> (= (f5 ?v0 ?v2) f1) (= ?v2 ?v1))) (= (f66 f75 ?v0) ?v1)))))
(assert (forall ((?v0 S3)) (=> (exists ((?v1 S4)) (and (= (f5 ?v0 ?v1) f1) (forall ((?v2 S4)) (=> (= (f5 ?v0 ?v2) f1) (= ?v2 ?v1))))) (= (f5 ?v0 (f66 f75 ?v0)) f1))))
(assert (forall ((?v0 S3) (?v1 S4)) (=> (exists ((?v2 S4)) (and (= (f5 ?v0 ?v2) f1) (forall ((?v3 S4)) (=> (= (f5 ?v0 ?v3) f1) (= ?v3 ?v2))))) (=> (= (f5 ?v0 ?v1) f1) (= (f66 f75 ?v0) ?v1)))))
(assert (forall ((?v0 S3) (?v1 S4)) (=> (= (f5 ?v0 ?v1) f1) (=> (forall ((?v2 S4)) (=> (= (f5 ?v0 ?v2) f1) (= ?v2 ?v1))) (= (f5 ?v0 (f66 f75 ?v0)) f1)))))
(assert (forall ((?v0 S42) (?v1 S4) (?v2 S3) (?v3 S4)) (=> (= (f5 (f6 (f8 (f81 f82 ?v0) ?v1) ?v2) ?v3) f1) (=> (not (= (f15 (f16 f17 ?v1) ?v2) f1)) (= (f5 (f6 (f76 f77 ?v0) (f6 (f8 f9 ?v1) ?v2)) ?v3) f1)))))
(assert (forall ((?v0 S42) (?v1 S38) (?v2 S3) (?v3 S4)) (=> (= (f78 (f79 f80 ?v0) ?v1) f1) (=> (= (f15 f83 ?v2) f1) (=> (not (= (f15 (f16 f17 ?v3) ?v2) f1)) (=> (not (= ?v2 f10)) (= (f66 ?v1 (f6 (f8 f9 ?v3) ?v2)) (f84 (f85 ?v0 ?v3) (f66 ?v1 ?v2)))))))))
(assert (forall ((?v0 S42) (?v1 S3)) (= (f66 (f86 f87 ?v0) ?v1) (f66 f75 (f6 (f76 f77 ?v0) ?v1)))))
(assert (forall ((?v0 S4) (?v1 S3)) (= (f66 (f88 f89 ?v0) ?v1) (ite (exists ((?v2 S4)) (and (= (f5 ?v1 ?v2) f1) (forall ((?v3 S4)) (=> (= (f5 ?v1 ?v3) f1) (= ?v3 ?v2))))) (f66 f75 ?v1) ?v0))))
(assert (forall ((?v0 S3) (?v1 S3)) (=> (or (= (f15 f83 (f6 f62 ?v0)) f1) (= (f15 f83 (f6 f62 ?v1)) f1)) (= (f15 f83 (f6 f62 (f6 (f20 f21 ?v0) ?v1))) f1))))
(check-sat)
(exit)
